100 10
913 675
325 885
586 656
330 542
614 654
282 101
606 448
587 187
183 367
776 222
636 370
635 220
452 608
583 340
644 828
511 44
518 162
529 806
545 429
367 743
502 374
471 143
312 394
199 586
583 738
570 349
844 454
610 57
689 643
514 629
579 466
372 736
295 665
99 422
365 628
409 279
823 516
512 441
228 798
531 596
494 680
589 295
156 519
534 562
690 614
642 488
772 334
553 375
426 748
711 242
268 369
589 251
514 139
317 516
683 352
470 694
914 509
860 399
875 448
835 629
636 381
542 578
291 152
438 589
494 441
301 276
496 76
691 262
724 340
373 216
551 300
325 105
63 405
422 385
676 683
564 399
303 142
810 254
402 574
287 81
659 437
746 607
295 311
350 610
572 365
600 799
421 54
312 586
413 276
316 418
447 299
618 674
590 172
662 348
595 130
475 860
683 662
554 406
379 282
680 584
